L=18;
no=10;
njo=[9,11,9,11,9,10,9,11,10,11];
djo=[23,26,28,28,27,20,18,21,20,25];
trab=[2,2,3,2,2,3,12,12,2,2,4,3,12,6,6,6,6,6,3,6,18,6,3,3,2,4,6,3,3,2,3,12,2,2,3,6,12,3,3,2,3,2,6,6,4,18,6,6,3,2,12,3,3,2,2,2,6,2,2,6,2,3,12,6,4,6,18,2,12,18,4,2,6,6,3,3,12,12,3,6,4,6,6,2,3,2,2,4,2,6,3,3,2,3,2,6,4,4,2,6,12,18,2,2,2,4,2,2,2,3,2,6,18,2,3,6,3,6,2,4,3,4,4,12,6,3,18,3,3,3,3,6,12,3,4,6,3,6,6,4,3,3,6,6,4,4,4,6,6,6,3,6,4,2,2,6,2,6,18,6,3,6,3,2,6,6,2,6,2,3,6,18,6,3,3,4,4,2,3,2,3,6,2,3,6,18,4,12,2,12,12,12,6,6,6,3,6,6,3,6,6,3,6,2,2,3,6,3,3,6,6,2,2,2,2,3,3,2,2,3,18,6,2,12,2,6,12,3,2,3,4,4,2,6,6,3];
nprec=30;
prec=[| 2, 11,
      | 4, 12,
      | 6, 13,
      | 8, 16,
      | 11, 21,
      | 12, 25,
      | 15, 29,
      | 21, 32,
      | 22, 34,
      | 24, 36,
      | 27, 40,
      | 33, 44,
      | 34, 47,
      | 35, 48,
      | 37, 49,
      | 41, 57,
      | 46, 59,
      | 53, 66,
      | 57, 67,
      | 58, 68,
      | 60, 74,
      | 64, 75,
      | 66, 76,
      | 67, 77,
      | 68, 78,
      | 72, 86,
      | 75, 88,
      | 83, 92,
      | 84, 93,
      | 86, 100 |];


%%%%%%%%%%%%%%%%%%%%%%%%%%%%%%%%%%%%%%%%%%%%%%%%%%%%%%%%%%%%%%%%%%%%%%
% 10
%
%  9   1   9  23 127
%  2   2   3   2   2   3  12  12   2   2   4   3  12   6   6   6   6   6   3   6  18   6   3 
%  1   1   1   0   0
%  1   2   2   0   1
%      2   2  11
%  1   3   3   0   0
%  1   4   4   0   1
%      2   3  12
%  1   5   5   0   0
%  1   6   6   0   1
%      2   4  13
%  1   7   7   0   0
%  1   8   8   0   1
%      2   7  16
%  1   9   9   0   0
%
% 11  10  20  26 125
%  3   2   4   6   3   3   2   3  12   2   2   3   6  12   3   3   2   3   2   6   6   4  18   6   6   3 
%  2   1  10   0   0
%  2   2  11   1   1
%      1   2   2
%      3   1  21
%  2   3  12   1   1
%      1   4   4
%      3   5  25
%  2   4  13   1   0
%      1   6   6
%  2   5  14   0   0
%  2   6  15   0   1
%      3   9  29
%  2   7  16   1   0
%      1   8   8
%  2   8  17   0   0
%  2   9  18   0   0
%  2  10  19   0   0
%  2  11  20   0   0
%
%  9  21  29  28 161
%  2  12   3   3   2   2   2   6   2   2   6   2   3  12   6   4   6  18   2  12  18   4   2   6   6   3   3  12 
%  3   1  21   1   1
%      2   2  11
%      4   3  32
%  3   2  22   0   1
%      4   5  34
%  3   3  23   0   0
%  3   4  24   0   1
%      4   7  36
%  3   5  25   1   0
%      2   3  12
%  3   6  26   0   0
%  3   7  27   0   1
%      4  11  40
%  3   8  28   0   0
%  3   9  29   1   0
%      2   6  15
%
% 11  30  40  28 129
% 12   3   6   4   6   6   2   3   2   2   4   2   6   3   3   2   3   2   6   4   4   2   6  12  18   2   2   2 
%  4   1  30   0   0
%  4   2  31   0   0
%  4   3  32   1   0
%      3   1  21
%  4   4  33   0   1
%      5   4  44
%  4   5  34   1   1
%      3   2  22
%      5   7  47
%  4   6  35   0   1
%      5   8  48
%  4   7  36   1   0
%      3   4  24
%  4   8  37   0   1
%      5   9  49
%  4   9  38   0   0
%  4  10  39   0   0
%  4  11  40   1   0
%      3   7  27
%
%  9  41  49  27 133
%  4   2   2   2   3   2   6  18   2   3   6   3   6   2   4   3   4   4  12   6   3  18   3   3   3   3   6 
%  5   1  41   0   1
%      6   8  57
%  5   2  42   0   0
%  5   3  43   0   0
%  5   4  44   1   0
%      4   4  33
%  5   5  45   0   0
%  5   6  46   0   1
%      6  10  59
%  5   7  47   1   0
%      4   5  34
%  5   8  48   1   0
%      4   6  35
%  5   9  49   1   0
%      4   8  37
%
% 10  50  59  20 101
% 12   3   4   6   3   6   6   4   3   3   6   6   4   4   4   6   6   6   3   6 
%  6   1  50   0   0
%  6   2  51   0   0
%  6   3  52   0   0
%  6   4  53   0   1
%      7   7  66
%  6   5  54   0   0
%  6   6  55   0   0
%  6   7  56   0   0
%  6   8  57   1   1
%      5   1  41
%      7   8  67
%  6   9  58   0   1
%      7   9  68
%  6  10  59   1   0
%      5   6  46
%
%  9  60  68  18  85
%  4   2   2   6   2   6  18   6   3   6   3   2   6   6   2   6   2   3 
%  7   1  60   0   1
%      8   6  74
%  7   2  61   0   0
%  7   3  62   0   0
%  7   4  63   0   0
%  7   5  64   0   1
%      8   7  75
%  7   6  65   0   0
%  7   7  66   1   1
%      6   4  53
%      8   8  76
%  7   8  67   1   1
%      6   8  57
%      8   9  77
%  7   9  68   1   1
%      6   9  58
%      8  10  78
%
% 11  69  79  21 131
%  6  18   6   3   3   4   4   2   3   2   3   6   2   3   6  18   4  12   2  12  12 
%  8   1  69   0   0
%  8   2  70   0   0
%  8   3  71   0   0
%  8   4  72   0   1
%      9   7  86
%  8   5  73   0   0
%  8   6  74   1   0
%      7   1  60
%  8   7  75   1   1
%      7   5  64
%      9   9  88
%  8   8  76   1   0
%      7   7  66
%  8   9  77   1   0
%      7   8  67
%  8  10  78   1   0
%      7   9  68
%  8  11  79   0   0
%
% 10  80  89  20 100
% 12   6   6   6   3   6   6   3   6   6   3   6   2   2   3   6   3   3   6   6 
%  9   1  80   0   0
%  9   2  81   0   0
%  9   3  82   0   0
%  9   4  83   0   1
%     10   3  92
%  9   5  84   0   1
%     10   4  93
%  9   6  85   0   0
%  9   7  86   1   1
%      8   4  72
%     10  11 100
%  9   8  87   0   0
%  9   9  88   1   0
%      8   7  75
%  9  10  89   0   0
%
% 11  90 100  25 112
%  2   2   2   2   3   3   2   2   3  18   6   2  12   2   6  12   3   2   3   4   4   2   6   6   3 
% 10   1  90   0   0
% 10   2  91   0   0
% 10   3  92   1   0
%      9   4  83
% 10   4  93   1   0
%      9   5  84
% 10   5  94   0   0
% 10   6  95   0   0
% 10   7  96   0   0
% 10   8  97   0   0
% 10   9  98   0   0
% 10  10  99   0   0
% 10  11 100   1   0
%      9   7  86
%
%352
